n,time(μs),knapsack(n)
1,228,0
2,182,0
3,182,0
4,176,0
5,184,0
6,195,0
7,179,0
8,299,255
9,179,255
10,180,255
11,180,255
12,260,255
13,188,255
14,181,255
15,177,255
16,222,255
17,215,255
18,186,255
19,281,255
20,186,255
21,183,255
22,199,337
23,207,337
24,186,337
25,192,337
26,585,337
27,221,337
28,429,337
29,371,337
30,195,337
31,495,337
32,225,364
33,218,364
34,191,364
35,212,364
36,189,364
37,228,364
38,217,364
39,189,364
40,190,364
41,918,364
42,216,364
43,669,364
44,246,364
45,204,364
46,214,364
47,188,364
48,204,364
49,239,364
50,698,364
51,196,364
52,214,364
53,402,364
54,215,364
55,851,364
56,219,364
57,231,364
58,644,364
59,1249,364
60,193,364
61,197,364
62,213,364
63,204,364
64,200,364
65,216,364
66,257,364
67,241,364
68,210,364
69,230,364
70,199,364
